c weights 0.3 0.7 0.2 0.8 0.8 0.2 1 1 1 1 0.1 0.9 1 1 0.6 0.4 0.3 0.7 0.4 0.6 1 1 1 1 1 1 1 0 
p cnf 14 21
4 -2 -3 0
-4 2 0
-4 3 0
5 -1 -4 0
-5 1 0
-5 4 0
7 -5 -6 0
-7 5 0
-7 6 0
11 -2 -10 0
-11 2 0
-11 10 0
-12 9 11 0
12 -9 0
12 -11 0
13 -8 -12 0
-13 8 0
-13 12 0
-14 13 7 0
14 -13 0
14 -7 0